NAME lp_typeD_838
OBJSENSE MAX
ROWS
 N  OBJ
 L  c0      
 L  c1      
 G  c2      
 G  c3      
 L  c_key_upper
 G  c_key_lower
 G  _chain_constr_1
 G  _chain_constr_2
 G  _chain_constr_3
 G  _chain_cycle
COLUMNS
    x0        OBJ       7.9848078133972289e-01
    x0        c0        0.609582350434249
    x0        c1        1.4544894579505840e+00
    x0        c2        1.7315829077020748e+00
    x0        c3        1.8378097292350959e+00
    x0        c_key_upper  1.87442978697233
    x0        c_key_lower  1.87442978697233
    x1        OBJ       0.785539594382725
    x1        c0        1.3520802754006813e+00
    x1        c1        1.5175789857622934e+00
    x1        c2        1.2496385318853855e+00
    x1        c3        8.4989875245209268e-01
    x1        c_key_upper  1.4861884449410105e+00
    x1        c_key_lower  1.4861884449410105e+00
    x2        OBJ       1.4593694331740470e+00
    x2        c0        1.7647623805205039e+00
    x2        c1        1.0745362289894964e+00
    x2        c2        7.1133341897488722e-01
    x2        c3        6.7919201913638738e-01
    x2        c_key_upper  1.5483855775115885e+00
    x2        c_key_lower  1.5483855775115885e+00
    x3        OBJ       7.2555585601259909e-01
    x3        c0        1.3647925050324758e+00
    x3        c1        0.566039460227594
    x3        c2        1.5922772436973143e+00
    x3        c3        1.4862741836360869e+00
    x3        c_key_upper  1.4999604382462648e+00
    x3        c_key_lower  1.4999604382462648e+00
    x4        OBJ       1.0724430724119927e+00
    x4        c0        1.5739910785356002e+00
    x4        c1        1.54312507362311
    x4        c2        1.3978589236003978e+00
    x4        c3        1.9254922583832774e+00
    x4        c_key_upper  1.4796820080418212e+00
    x4        c_key_lower  1.4796820080418212e+00
    x5        OBJ       1.0281853572761044e+00
    x5        c0        1.4509590746142620e+00
    x5        c1        1.2204038114250675e+00
    x5        c2        1.5913421214471732e+00
    x5        c3        1.1478559761105867e+00
    x5        c_key_upper  1.5635629343013098e+00
    x5        c_key_lower  1.5635629343013098e+00
    x6        OBJ       5.9698425812737066e-01
    x6        c0        1.7596884903127841e+00
    x6        c1        6.9046098534474365e-01
    x6        c2        1.7370768970514046e+00
    x6        c3        1.9115923297830890e+00
    x6        c_key_upper  1.2130754982096410e+00
    x6        c_key_lower  1.2130754982096410e+00
    _chain_var_0  _chain_constr_1  -1
    _chain_var_0  _chain_cycle  1
    _chain_var_1  _chain_constr_1  1
    _chain_var_1  _chain_constr_2  -1
    _chain_var_2  _chain_constr_2  1
    _chain_var_2  _chain_constr_3  -1
    _chain_var_3  _chain_constr_3  1
    _chain_var_3  _chain_cycle  -1
RHS
    RHS1      c0        4.9614833417670241e+01
    RHS1      c1        3.9036955472697493e+01
    RHS1      c2        1.7518543523318993e+01
    RHS1      c3        1.1823081819479663e+01
    RHS1      c_key_upper  5.3326423441119829e+01
    RHS1      c_key_lower  2.6663211720559914e+01
    RHS1      _chain_constr_1  10
    RHS1      _chain_constr_2  10
    RHS1      _chain_constr_3  10
    RHS1      _chain_cycle  10
BOUNDS
 UP BND1      x0        10
 UP BND1      x1        10
 UP BND1      x2        10
 UP BND1      x3        10
 UP BND1      x4        10
 UP BND1      x5        10
 UP BND1      x6        10
 UP BND1      _chain_var_0  100
 UP BND1      _chain_var_1  100
 UP BND1      _chain_var_2  100
 UP BND1      _chain_var_3  100
ENDATA
